Instance name:    bar-n100-2
Authors:          PDPTW Solver
Date:             2025-11-20
Reference:        LNS with SA/RTR
Solution
Route 1 : 27 77 37 29 79 30 87 5 80 23 55 8 10 58 60 73 14 64 43 93 41 91
Route 2 : 39 89 40 90 18 68 36 86 16 66 1 21 71 51 4 54 38 11 61 88
Route 3 : 12 13 63 62 19 69 50 31 81 33 83 9 59 25 100 75 47 97 2 52 7 57
Route 4 : 34 84 22 17 42 92 26 76 67 45 95 6 48 98 56 3 44 94 53 32 82 46 96 72
Route 5 : 15 65 20 70 28 78 49 99 35 85 24 74
